! cam-b3lyp def2-TZVP(-f) def2/J RIJCOSX tightSCF noautostart miniprint nopop
%maxcore  1000
%pal nprocs   8 end
! CPCM(DMF)
%tddft
nroots 300
TDA false
end
* xyz   0   1
S      4.66848500    9.29092100    8.39496900
F      1.41094300    6.31119500    6.87491600
O      2.65407100    8.24011100    3.43250700
O     -2.77044700    5.39748300    4.83533100
C      0.56631700    6.50071400    5.82950700
C     -0.65053100    5.84982300    5.91598000
H     -0.85929000    5.25437100    6.79137100
C     -1.55388300    5.97874300    4.86171700
C     -1.20588300    6.74824600    3.74158500
H     -1.91417800    6.84465400    2.92976700
C      0.02299800    7.36313400    3.69044600
H      0.29751000    7.94896300    2.82430500
C      0.95779600    7.27387000    4.73869500
C      2.26152200    7.97531100    4.57212400
C      3.01784900    8.38106900    5.76054500
H      2.58874300    8.19158700    6.73306900
C      4.20991900    8.99924700    5.64041400
H      4.59626600    9.16796900    4.63995800
C      5.04818800    9.47203400    6.69941400
C      6.25224800   10.12532900    6.54875000
H      6.67148800   10.33802900    5.57383200
C      6.87618600   10.48677900    7.77212300
C      6.12462700   10.09275000    8.84842500
H      6.35392900   10.23262800    9.89361000
C     -3.16085600    4.58446000    5.95054900
H     -4.15633100    4.22022000    5.71336400
H     -3.19032200    5.17534100    6.86783700
H     -2.47672500    3.74261000    6.07153900
C      8.18720100   11.20812900    7.86815500
H      8.97959900   10.64407100    7.37080200
H      8.47542600   11.35908700    8.90809700
H      8.13013400   12.18562300    7.38339700
 *
